--- Job KnapsackA.gms Start 04/29/20 22:35:30 30.3.0 rc5da09e WEX-WEI x86 64bit/MS Windows
--- GAMS Parameters defined
    Input C:\aguadix\GITHUB\SOC\2MixedIntegerProgramming\1Knapsack\KnapsackA\KnapsackA.gms
    PageSize 0
    ScrDir C:\aguadix\GITHUB\SOC\2MixedIntegerProgramming\1Knapsack\KnapsackA\225a\
    SysDir C:\GAMS\win64\30.3\
    LogOption 3
    ErrMsg 1
    ErrorLog 99
    IDE 1
    LstTitleLeftAligned 1
GAMS 30.3.0   Copyright (C) 1987-2020 GAMS Development. All rights reserved
Licensee: GAMS Demo license for ANTONIO MARIA GUADIX ESCOG200420|0002CO-GEN
          UNIVERSITY OF GRANADA, Spain                             DL007289
          aguadix@ugr.es, ANTONIO MARIA GUADIX ESCOBAR                     
          Demo license for demonstration and instructional purposes only
--- Starting compilation
--- KnapsackA.gms(37) 2 Mb
--- Starting execution: elapsed 0:00:00.000
--- KnapsackA.gms(21) 3 Mb
--- Generating MIP model KnapsackA
--- KnapsackA.gms(37) 3 Mb
---   2 rows  11 columns  21 non-zeroes
---   10 discrete-columns
--- Executing CPLEX: elapsed 0:00:00.031

IBM ILOG CPLEX   30.3.0 rc5da09e Released Mar 06, 2020 WEI x86 64bit/MS Window
*** This solver runs with a demo license. No commercial use.
Cplex 12.10.0.0

Reading data...
Starting Cplex...
Space for names approximately 0.00 Mb
Use option 'names no' to turn use of names off
Version identifier: 12.10.0.0 | 2019-11-26 | 843d4de2ae
CPXPARAM_Advance                                 0
CPXPARAM_Simplex_Display                         2
CPXPARAM_Threads                                 1
CPXPARAM_Parallel                                1
CPXPARAM_MIP_Display                             4
CPXPARAM_Simplex_Limits_Iterations               2000000000
CPXPARAM_TimeLimit                               1000
CPXPARAM_Tune_TimeLimit                          200
CPXPARAM_MIP_Tolerances_AbsMIPGap                0
CPXPARAM_MIP_Tolerances_MIPGap                   0.10000000000000001
CPXPARAM_WorkDir                                 "C:\aguadix\GITHUB\SOC\2MixedIntegerProgramming\1Knapsack\KnapsackA\225a\"
Found incumbent of value 0.000000 after 0.00 sec. (0.00 ticks)
Tried aggregator 1 time.
MIP Presolve eliminated 1 rows and 1 columns.
Reduced MIP has 1 rows, 10 columns, and 10 nonzeros.
Reduced MIP has 1 binaries, 9 generals, 0 SOSs, and 0 indicators.
Presolve time = 0.00 sec. (0.01 ticks)
Probing time = 0.00 sec. (0.00 ticks)
Tried aggregator 1 time.
Reduced MIP has 1 rows, 10 columns, and 10 nonzeros.
Reduced MIP has 1 binaries, 9 generals, 0 SOSs, and 0 indicators.
Presolve time = 0.00 sec. (0.01 ticks)
Probing time = 0.00 sec. (0.00 ticks)
MIP emphasis: balance optimality and feasibility.
MIP search method: dynamic search.
Parallel mode: none, using 1 thread.
Tried aggregator 1 time.
No LP presolve or aggregator reductions.
Presolve time = 0.00 sec. (0.00 ticks)

Iteration      Dual Objective            In Variable           Out Variable
     1             439.083333                     x6              RWT slack
Root relaxation solution time = 0.00 sec. (0.00 ticks)

        Nodes                                         Cuts/
   Node  Left     Objective  IInf  Best Integer    Best Bound    ItCnt     Gap

*     0+    0                            0.0000     1003.0000              --- 
Found incumbent of value 0.000000 after 0.00 sec. (0.03 ticks)
      0     0      439.0833     1        0.0000      439.0833        1     --- 
*     0+    0                          392.0000      439.0833            12.01%
Found incumbent of value 392.000000 after 0.00 sec. (0.04 ticks)
*     0+    0                          420.0000      439.0833             4.54%
Found incumbent of value 420.000000 after 0.00 sec. (0.04 ticks)

Root node processing (before b&c):
  Real time             =    0.00 sec. (0.04 ticks)
Sequential b&c:
  Real time             =    0.00 sec. (0.00 ticks)
                          ------------
Total (root+branch&cut) =    0.00 sec. (0.04 ticks)
MIP status(102): integer optimal, tolerance
Cplex Time: 0.00sec (det. 0.04 ticks)
Fixing integer variables, and solving final LP...
Version identifier: 12.10.0.0 | 2019-11-26 | 843d4de2ae
CPXPARAM_Advance                                 2
CPXPARAM_Simplex_Display                         2
CPXPARAM_Threads                                 1
CPXPARAM_Parallel                                1
CPXPARAM_MIP_Display                             4
CPXPARAM_Simplex_Limits_Iterations               2000000000
CPXPARAM_TimeLimit                               1000
CPXPARAM_Tune_TimeLimit                          200
CPXPARAM_MIP_Tolerances_AbsMIPGap                0
CPXPARAM_MIP_Tolerances_MIPGap                   0.10000000000000001
CPXPARAM_WorkDir                                 "C:\aguadix\GITHUB\SOC\2MixedIntegerProgramming\1Knapsack\KnapsackA\225a\"
Tried aggregator 1 time.
LP Presolve eliminated 2 rows and 11 columns.
All rows and columns eliminated.
Presolve time = 0.00 sec. (0.00 ticks)
Fixed MIP status(1): optimal
Cplex Time: 0.00sec (det. 0.00 ticks)

Solution satisfies tolerances.

MIP Solution:          420.000000    (1 iterations, 0 nodes)
Final Solve:           420.000000    (0 iterations)

Best possible:         439.083333
Absolute gap:           19.083333
Relative gap:            0.043462

--- Restarting execution
--- KnapsackA.gms(37) 2 Mb
--- Reading solution for model KnapsackA
*** Status: Normal completion
--- Job KnapsackA.gms Stop 04/29/20 22:35:30 elapsed 0:00:00.152
